c "12666.clq"
p edge 199 2928
e 1 17
e 1 18
e 1 19
e 1 20
e 1 21
e 1 22
e 1 23
e 1 24
e 1 25
e 1 27
e 1 28
e 1 30
e 1 35
e 1 36
e 1 39
e 1 41
e 1 45
e 1 46
e 1 48
e 1 50
e 1 52
e 1 64
e 1 77
e 1 78
e 1 85
e 1 88
e 1 89
e 1 93
e 1 105
e 1 106
e 1 113
e 1 116
e 1 122
e 1 125
e 1 129
e 1 132
e 1 134
e 1 142
e 1 153
e 1 161
e 1 166
e 1 177
e 1 182
e 1 183
e 1 187
e 1 197
e 2 17
e 2 18
e 2 19
e 2 20
e 2 21
e 2 22
e 2 23
e 2 24
e 2 27
e 2 29
e 2 33
e 2 34
e 2 42
e 2 44
e 2 48
e 2 49
e 2 52
e 2 59
e 2 71
e 2 73
e 2 75
e 2 84
e 2 89
e 2 109
e 2 115
e 2 120
e 2 134
e 2 139
e 2 149
e 2 167
e 2 188
e 2 197
e 3 17
e 3 19
e 3 20
e 3 22
e 3 23
e 3 26
e 3 55
e 3 56
e 3 58
e 3 78
e 3 80
e 3 114
e 3 120
e 3 145
e 3 149
e 3 151
e 3 176
e 4 17
e 4 18
e 4 19
e 4 20
e 4 21
e 4 22
e 4 25
e 4 27
e 4 33
e 4 34
e 4 37
e 4 40
e 4 47
e 4 49
e 4 63
e 4 66
e 4 71
e 4 72
e 4 79
e 4 85
e 4 86
e 4 96
e 4 97
e 4 106
e 4 110
e 4 111
e 4 116
e 4 121
e 4 122
e 4 134
e 4 135
e 4 159
e 4 160
e 4 163
e 4 168
e 4 172
e 4 181
e 4 187
e 4 189
e 5 17
e 5 18
e 5 33
e 5 42
e 5 73
e 5 80
e 6 17
e 6 18
e 6 20
e 6 21
e 6 22
e 6 23
e 6 24
e 6 25
e 6 26
e 6 28
e 6 29
e 6 31
e 6 34
e 6 38
e 6 39
e 6 40
e 6 41
e 6 47
e 6 54
e 6 58
e 6 59
e 6 65
e 6 66
e 6 69
e 6 70
e 6 74
e 6 75
e 6 77
e 6 78
e 6 84
e 6 86
e 6 91
e 6 92
e 6 96
e 6 99
e 6 101
e 6 105
e 6 107
e 6 111
e 6 112
e 6 115
e 6 117
e 6 125
e 6 129
e 6 130
e 6 133
e 6 140
e 6 156
e 6 162
e 6 163
e 6 166
e 6 173
e 6 174
e 6 178
e 6 188
e 6 193
e 7 17
e 7 18
e 7 19
e 7 20
e 7 21
e 7 22
e 7 23
e 7 24
e 7 25
e 7 26
e 7 28
e 7 30
e 7 32
e 7 34
e 7 35
e 7 37
e 7 38
e 7 50
e 7 54
e 7 56
e 7 57
e 7 60
e 7 65
e 7 67
e 7 72
e 7 85
e 7 90
e 7 93
e 7 95
e 7 99
e 7 102
e 7 119
e 7 136
e 7 138
e 7 144
e 7 145
e 7 148
e 7 162
e 7 176
e 7 198
e 7 199
e 8 17
e 8 18
e 8 19
e 8 20
e 8 23
e 8 26
e 8 27
e 8 28
e 8 32
e 8 36
e 8 39
e 8 44
e 8 51
e 8 53
e 8 63
e 8 65
e 8 67
e 8 89
e 8 99
e 8 101
e 8 112
e 8 140
e 8 170
e 9 17
e 9 18
e 9 19
e 9 20
e 9 21
e 9 22
e 9 23
e 9 24
e 9 27
e 9 28
e 9 29
e 9 30
e 9 47
e 9 50
e 9 56
e 9 59
e 9 70
e 9 75
e 9 78
e 9 80
e 9 98
e 9 100
e 9 104
e 9 109
e 9 112
e 9 123
e 9 127
e 9 129
e 9 131
e 9 136
e 9 144
e 9 155
e 9 156
e 9 173
e 10 17
e 10 18
e 10 19
e 10 20
e 10 21
e 10 25
e 10 29
e 10 35
e 10 36
e 10 69
e 10 70
e 10 85
e 10 87
e 10 92
e 10 94
e 10 96
e 10 99
e 10 102
e 10 124
e 10 152
e 10 157
e 10 188
e 10 189
e 10 194
e 10 197
e 10 198
e 11 17
e 11 18
e 11 19
e 11 20
e 11 21
e 11 25
e 11 29
e 11 30
e 11 32
e 11 41
e 11 44
e 11 45
e 11 46
e 11 50
e 11 55
e 11 58
e 11 67
e 11 72
e 11 76
e 11 81
e 11 87
e 11 100
e 11 111
e 11 119
e 11 121
e 11 129
e 11 130
e 11 132
e 11 139
e 11 141
e 11 153
e 11 157
e 11 174
e 11 193
e 12 17
e 12 18
e 12 19
e 12 20
e 12 21
e 12 26
e 12 28
e 12 29
e 12 30
e 12 31
e 12 32
e 12 33
e 12 37
e 12 38
e 12 42
e 12 47
e 12 50
e 12 51
e 12 61
e 12 70
e 12 71
e 12 77
e 12 80
e 12 97
e 12 99
e 12 108
e 12 117
e 12 119
e 12 121
e 12 128
e 12 136
e 12 139
e 12 140
e 12 143
e 12 144
e 12 146
e 12 148
e 12 151
e 12 162
e 12 163
e 12 167
e 12 177
e 12 187
e 12 199
e 13 17
e 13 18
e 13 19
e 13 22
e 13 24
e 13 25
e 13 26
e 13 27
e 13 28
e 13 31
e 13 34
e 13 37
e 13 45
e 13 47
e 13 60
e 13 66
e 13 80
e 13 95
e 13 99
e 13 105
e 13 110
e 13 128
e 13 132
e 13 176
e 13 178
e 13 190
e 14 17
e 14 18
e 14 19
e 14 20
e 14 21
e 14 22
e 14 23
e 14 24
e 14 26
e 14 27
e 14 29
e 14 30
e 14 32
e 14 33
e 14 34
e 14 38
e 14 40
e 14 43
e 14 45
e 14 46
e 14 53
e 14 55
e 14 66
e 14 70
e 14 71
e 14 73
e 14 77
e 14 81
e 14 83
e 14 92
e 14 95
e 14 106
e 14 116
e 14 117
e 14 153
e 14 176
e 14 177
e 14 182
e 14 196
e 15 17
e 15 18
e 15 19
e 15 21
e 15 22
e 15 23
e 15 24
e 15 25
e 15 27
e 15 29
e 15 31
e 15 34
e 15 36
e 15 38
e 15 42
e 15 43
e 15 49
e 15 51
e 15 52
e 15 57
e 15 68
e 15 83
e 15 86
e 15 87
e 15 88
e 15 89
e 15 93
e 15 97
e 15 102
e 15 105
e 15 112
e 15 113
e 15 118
e 15 121
e 15 124
e 15 126
e 15 128
e 15 129
e 15 132
e 15 138
e 15 154
e 15 158
e 15 161
e 15 167
e 15 190
e 15 194
e 15 196
e 16 17
e 16 18
e 16 19
e 16 20
e 16 21
e 16 22
e 16 23
e 16 24
e 16 25
e 16 26
e 16 27
e 16 30
e 16 33
e 16 35
e 16 37
e 16 41
e 16 42
e 16 47
e 16 49
e 16 53
e 16 55
e 16 80
e 16 88
e 16 97
e 16 104
e 16 131
e 16 134
e 16 146
e 16 154
e 16 162
e 16 179
e 16 181
e 17 18
e 17 19
e 17 20
e 17 21
e 17 22
e 17 23
e 17 24
e 17 25
e 17 26
e 17 27
e 17 28
e 17 30
e 17 31
e 17 32
e 17 33
e 17 34
e 17 35
e 17 36
e 17 38
e 17 39
e 17 43
e 17 44
e 17 46
e 17 47
e 17 48
e 17 50
e 17 52
e 17 61
e 17 62
e 17 65
e 17 66
e 17 69
e 17 72
e 17 74
e 17 76
e 17 80
e 17 81
e 17 84
e 17 89
e 17 90
e 17 92
e 17 93
e 17 99
e 17 101
e 17 103
e 17 105
e 17 106
e 17 109
e 17 112
e 17 115
e 17 118
e 17 120
e 17 125
e 17 126
e 17 129
e 17 139
e 17 147
e 17 148
e 17 151
e 17 152
e 17 154
e 17 155
e 17 158
e 17 170
e 17 175
e 17 180
e 17 190
e 18 19
e 18 20
e 18 21
e 18 22
e 18 23
e 18 24
e 18 26
e 18 27
e 18 28
e 18 30
e 18 31
e 18 32
e 18 33
e 18 35
e 18 36
e 18 37
e 18 39
e 18 40
e 18 42
e 18 44
e 18 49
e 18 50
e 18 54
e 18 56
e 18 57
e 18 59
e 18 60
e 18 61
e 18 64
e 18 70
e 18 71
e 18 72
e 18 75
e 18 77
e 18 78
e 18 81
e 18 82
e 18 87
e 18 93
e 18 98
e 18 99
e 18 102
e 18 112
e 18 117
e 18 120
e 18 124
e 18 126
e 18 133
e 18 134
e 18 136
e 18 140
e 18 143
e 18 146
e 18 147
e 18 150
e 18 158
e 18 167
e 18 173
e 18 186
e 18 195
e 18 197
e 18 199
e 19 20
e 19 21
e 19 22
e 19 23
e 19 24
e 19 25
e 19 26
e 19 27
e 19 28
e 19 29
e 19 30
e 19 31
e 19 32
e 19 33
e 19 34
e 19 35
e 19 36
e 19 38
e 19 39
e 19 40
e 19 41
e 19 42
e 19 43
e 19 45
e 19 48
e 19 50
e 19 51
e 19 54
e 19 55
e 19 57
e 19 63
e 19 64
e 19 67
e 19 69
e 19 72
e 19 78
e 19 85
e 19 86
e 19 87
e 19 88
e 19 95
e 19 96
e 19 99
e 19 102
e 19 107
e 19 109
e 19 111
e 19 116
e 19 117
e 19 123
e 19 127
e 19 128
e 19 130
e 19 133
e 19 137
e 19 138
e 19 140
e 19 142
e 19 143
e 19 144
e 19 148
e 19 155
e 19 156
e 19 162
e 19 167
e 19 169
e 19 171
e 19 172
e 19 175
e 19 176
e 19 192
e 19 195
e 19 196
e 19 198
e 20 21
e 20 22
e 20 23
e 20 24
e 20 25
e 20 26
e 20 27
e 20 31
e 20 34
e 20 35
e 20 36
e 20 37
e 20 39
e 20 40
e 20 43
e 20 44
e 20 45
e 20 49
e 20 50
e 20 52
e 20 53
e 20 54
e 20 55
e 20 56
e 20 57
e 20 59
e 20 60
e 20 63
e 20 65
e 20 68
e 20 72
e 20 76
e 20 78
e 20 79
e 20 81
e 20 82
e 20 85
e 20 87
e 20 88
e 20 91
e 20 94
e 20 97
e 20 100
e 20 101
e 20 103
e 20 104
e 20 106
e 20 109
e 20 114
e 20 117
e 20 118
e 20 119
e 20 126
e 20 127
e 20 128
e 20 129
e 20 131
e 20 141
e 20 143
e 20 144
e 20 146
e 20 148
e 20 150
e 20 154
e 20 157
e 20 158
e 20 163
e 20 169
e 20 171
e 20 172
e 20 173
e 20 175
e 20 176
e 20 183
e 20 188
e 20 198
e 21 22
e 21 23
e 21 24
e 21 25
e 21 26
e 21 29
e 21 30
e 21 31
e 21 32
e 21 33
e 21 34
e 21 37
e 21 38
e 21 39
e 21 43
e 21 44
e 21 45
e 21 46
e 21 48
e 21 50
e 21 59
e 21 62
e 21 63
e 21 67
e 21 69
e 21 71
e 21 74
e 21 76
e 21 78
e 21 79
e 21 81
e 21 82
e 21 84
e 21 87
e 21 90
e 21 94
e 21 95
e 21 96
e 21 107
e 21 108
e 21 109
e 21 111
e 21 113
e 21 115
e 21 116
e 21 118
e 21 128
e 21 134
e 21 135
e 21 136
e 21 138
e 21 141
e 21 142
e 21 143
e 21 148
e 21 149
e 21 161
e 21 163
e 21 168
e 21 173
e 21 181
e 21 183
e 21 185
e 21 193
e 21 198
e 21 199
e 22 23
e 22 24
e 22 25
e 22 26
e 22 28
e 22 29
e 22 31
e 22 32
e 22 34
e 22 35
e 22 36
e 22 37
e 22 38
e 22 39
e 22 40
e 22 42
e 22 43
e 22 44
e 22 46
e 22 49
e 22 51
e 22 52
e 22 53
e 22 54
e 22 58
e 22 62
e 22 64
e 22 66
e 22 68
e 22 70
e 22 72
e 22 74
e 22 76
e 22 78
e 22 79
e 22 80
e 22 82
e 22 84
e 22 86
e 22 90
e 22 91
e 22 92
e 22 95
e 22 96
e 22 100
e 22 102
e 22 104
e 22 111
e 22 115
e 22 123
e 22 125
e 22 133
e 22 143
e 22 144
e 22 145
e 22 149
e 22 151
e 22 157
e 22 158
e 22 160
e 22 163
e 22 166
e 22 168
e 22 176
e 22 182
e 22 183
e 22 184
e 22 188
e 22 192
e 23 24
e 23 25
e 23 27
e 23 28
e 23 29
e 23 30
e 23 32
e 23 33
e 23 34
e 23 35
e 23 36
e 23 37
e 23 39
e 23 40
e 23 41
e 23 44
e 23 46
e 23 47
e 23 48
e 23 54
e 23 55
e 23 59
e 23 61
e 23 62
e 23 65
e 23 68
e 23 70
e 23 74
e 23 75
e 23 82
e 23 86
e 23 97
e 23 98
e 23 100
e 23 104
e 23 105
e 23 110
e 23 113
e 23 114
e 23 117
e 23 122
e 23 124
e 23 127
e 23 146
e 23 147
e 23 148
e 23 151
e 23 152
e 23 156
e 23 159
e 23 160
e 23 168
e 23 169
e 23 170
e 23 171
e 23 173
e 23 179
e 23 182
e 23 183
e 23 184
e 23 190
e 23 193
e 23 199
e 24 25
e 24 26
e 24 27
e 24 28
e 24 29
e 24 30
e 24 31
e 24 34
e 24 35
e 24 38
e 24 43
e 24 47
e 24 48
e 24 51
e 24 52
e 24 53
e 24 54
e 24 56
e 24 58
e 24 59
e 24 60
e 24 61
e 24 65
e 24 70
e 24 71
e 24 72
e 24 78
e 24 79
e 24 80
e 24 87
e 24 89
e 24 115
e 24 120
e 24 128
e 24 134
e 24 144
e 24 147
e 24 162
e 24 173
e 24 174
e 24 187
e 24 188
e 25 26
e 25 27
e 25 28
e 25 30
e 25 31
e 25 32
e 25 34
e 25 35
e 25 36
e 25 37
e 25 38
e 25 39
e 25 40
e 25 41
e 25 42
e 25 43
e 25 45
e 25 49
e 25 51
e 25 52
e 25 54
e 25 55
e 25 56
e 25 57
e 25 58
e 25 59
e 25 60
e 25 62
e 25 63
e 25 66
e 25 67
e 25 69
e 25 77
e 25 85
e 25 86
e 25 87
e 25 88
e 25 90
e 25 91
e 25 95
e 25 96
e 25 102
e 25 107
e 25 108
e 25 110
e 25 116
e 25 127
e 25 129
e 25 133
e 25 141
e 25 145
e 25 147
e 25 152
e 25 156
e 25 158
e 25 164
e 25 167
e 25 170
e 25 183
e 25 193
e 25 195
e 25 198
e 26 28
e 26 29
e 26 30
e 26 31
e 26 37
e 26 40
e 26 41
e 26 42
e 26 43
e 26 46
e 26 54
e 26 60
e 26 61
e 26 64
e 26 68
e 26 69
e 26 70
e 26 72
e 26 73
e 26 74
e 26 79
e 26 81
e 26 84
e 26 85
e 26 86
e 26 114
e 26 116
e 26 120
e 26 130
e 26 131
e 26 134
e 26 135
e 26 137
e 26 140
e 26 141
e 26 144
e 26 146
e 26 156
e 26 166
e 26 169
e 26 172
e 26 178
e 26 179
e 26 187
e 26 192
e 26 194
e 26 199
e 27 28
e 27 29
e 27 33
e 27 35
e 27 37
e 27 39
e 27 46
e 27 48
e 27 59
e 27 80
e 27 83
e 27 96
e 27 114
e 27 115
e 27 118
e 27 126
e 27 135
e 27 139
e 27 142
e 27 143
e 27 148
e 27 153
e 27 180
e 27 196
e 28 29
e 28 30
e 28 31
e 28 32
e 28 33
e 28 34
e 28 35
e 28 38
e 28 41
e 28 42
e 28 44
e 28 45
e 28 48
e 28 49
e 28 50
e 28 51
e 28 53
e 28 54
e 28 58
e 28 62
e 28 64
e 28 65
e 28 66
e 28 67
e 28 71
e 28 73
e 28 79
e 28 82
e 28 84
e 28 89
e 28 90
e 28 95
e 28 97
e 28 100
e 28 106
e 28 111
e 28 112
e 28 113
e 28 117
e 28 125
e 28 128
e 28 133
e 28 142
e 28 146
e 28 150
e 28 151
e 28 155
e 28 170
e 28 175
e 28 177
e 28 178
e 28 184
e 29 31
e 29 32
e 29 33
e 29 35
e 29 36
e 29 38
e 29 39
e 29 40
e 29 41
e 29 42
e 29 43
e 29 44
e 29 46
e 29 47
e 29 48
e 29 49
e 29 53
e 29 54
e 29 55
e 29 57
e 29 67
e 29 68
e 29 69
e 29 71
e 29 73
e 29 74
e 29 75
e 29 82
e 29 93
e 29 94
e 29 102
e 29 103
e 29 104
e 29 108
e 29 111
e 29 116
e 29 121
e 29 123
e 29 133
e 29 135
e 29 136
e 29 137
e 29 141
e 29 143
e 29 144
e 29 148
e 29 152
e 29 154
e 29 155
e 29 157
e 29 159
e 29 175
e 29 176
e 29 193
e 30 31
e 30 32
e 30 33
e 30 36
e 30 37
e 30 38
e 30 40
e 30 41
e 30 42
e 30 49
e 30 56
e 30 61
e 30 66
e 30 68
e 30 75
e 30 80
e 30 91
e 30 105
e 30 106
e 30 109
e 30 116
e 30 121
e 30 124
e 30 129
e 30 131
e 30 147
e 30 149
e 30 151
e 30 153
e 30 165
e 30 186
e 30 191
e 30 199
e 31 32
e 31 33
e 31 36
e 31 40
e 31 41
e 31 43
e 31 44
e 31 45
e 31 46
e 31 47
e 31 50
e 31 53
e 31 55
e 31 56
e 31 57
e 31 61
e 31 63
e 31 64
e 31 71
e 31 75
e 31 77
e 31 84
e 31 85
e 31 87
e 31 90
e 31 96
e 31 115
e 31 116
e 31 123
e 31 126
e 31 132
e 31 133
e 31 137
e 31 147
e 31 154
e 31 155
e 31 158
e 31 167
e 31 168
e 31 175
e 31 178
e 31 180
e 31 181
e 31 189
e 31 191
e 31 196
e 31 197
e 31 199
e 32 36
e 32 37
e 32 40
e 32 44
e 32 50
e 32 52
e 32 53
e 32 54
e 32 55
e 32 56
e 32 58
e 32 63
e 32 64
e 32 66
e 32 67
e 32 76
e 32 79
e 32 83
e 32 88
e 32 89
e 32 91
e 32 100
e 32 102
e 32 106
e 32 136
e 32 139
e 32 146
e 32 151
e 32 163
e 32 166
e 32 172
e 32 184
e 32 186
e 33 35
e 33 36
e 33 39
e 33 43
e 33 51
e 33 62
e 33 68
e 33 69
e 33 70
e 33 76
e 33 86
e 33 94
e 33 101
e 33 115
e 33 134
e 33 136
e 33 153
e 33 154
e 33 155
e 33 160
e 33 172
e 33 177
e 33 188
e 33 190
e 33 194
e 33 197
e 34 37
e 34 38
e 34 42
e 34 45
e 34 46
e 34 48
e 34 57
e 34 62
e 34 65
e 34 66
e 34 76
e 34 81
e 34 104
e 34 107
e 34 118
e 34 121
e 34 122
e 34 123
e 34 124
e 34 132
e 34 134
e 34 139
e 34 143
e 34 153
e 34 157
e 34 169
e 34 176
e 34 183
e 34 187
e 34 194
e 35 38
e 35 41
e 35 45
e 35 47
e 35 48
e 35 53
e 35 62
e 35 64
e 35 73
e 35 77
e 35 83
e 35 84
e 35 88
e 35 93
e 35 108
e 35 112
e 35 116
e 35 117
e 35 119
e 35 122
e 35 127
e 35 131
e 35 147
e 35 159
e 35 163
e 35 164
e 35 174
e 35 177
e 35 181
e 35 189
e 35 197
e 35 198
e 36 39
e 36 40
e 36 42
e 36 48
e 36 52
e 36 53
e 36 54
e 36 56
e 36 58
e 36 62
e 36 68
e 36 91
e 36 100
e 36 113
e 36 145
e 36 150
e 36 157
e 36 160
e 36 168
e 36 180
e 36 187
e 37 40
e 37 41
e 37 43
e 37 44
e 37 45
e 37 47
e 37 48
e 37 49
e 37 50
e 37 51
e 37 56
e 37 58
e 37 64
e 37 65
e 37 66
e 37 67
e 37 68
e 37 69
e 37 70
e 37 72
e 37 74
e 37 77
e 37 79
e 37 83
e 37 87
e 37 89
e 37 91
e 37 94
e 37 97
e 37 98
e 37 100
e 37 102
e 37 103
e 37 107
e 37 110
e 37 113
e 37 117
e 37 123
e 37 127
e 37 133
e 37 143
e 37 144
e 37 145
e 37 159
e 37 166
e 37 179
e 37 184
e 37 187
e 37 191
e 38 39
e 38 43
e 38 45
e 38 47
e 38 51
e 38 59
e 38 60
e 38 62
e 38 63
e 38 64
e 38 73
e 38 78
e 38 82
e 38 89
e 38 90
e 38 95
e 38 98
e 38 99
e 38 101
e 38 104
e 38 105
e 38 110
e 38 111
e 38 112
e 38 114
e 38 115
e 38 117
e 38 126
e 38 128
e 38 132
e 38 135
e 38 145
e 38 155
e 38 158
e 38 174
e 38 180
e 38 188
e 38 190
e 38 198
e 39 41
e 39 44
e 39 49
e 39 51
e 39 52
e 39 54
e 39 65
e 39 80
e 39 81
e 39 86
e 39 87
e 39 90
e 39 93
e 39 103
e 39 107
e 39 118
e 39 120
e 39 121
e 39 122
e 39 125
e 39 132
e 39 134
e 39 138
e 39 155
e 39 157
e 39 163
e 39 167
e 39 198
e 40 41
e 40 42
e 40 44
e 40 45
e 40 49
e 40 50
e 40 53
e 40 56
e 40 57
e 40 59
e 40 60
e 40 63
e 40 68
e 40 81
e 40 88
e 40 92
e 40 94
e 40 103
e 40 107
e 40 109
e 40 111
e 40 122
e 40 140
e 40 150
e 40 163
e 40 178
e 40 183
e 40 188
e 40 191
e 41 43
e 41 45
e 41 46
e 41 47
e 41 48
e 41 57
e 41 58
e 41 62
e 41 63
e 41 66
e 41 67
e 41 68
e 41 71
e 41 77
e 41 78
e 41 84
e 41 97
e 41 105
e 41 107
e 41 109
e 41 118
e 41 121
e 41 122
e 41 136
e 41 142
e 41 143
e 41 147
e 41 153
e 41 180
e 41 190
e 41 191
e 42 46
e 42 51
e 42 58
e 42 60
e 42 66
e 42 73
e 42 75
e 42 84
e 42 88
e 42 89
e 42 92
e 42 102
e 42 118
e 42 135
e 42 138
e 42 152
e 42 161
e 43 46
e 43 47
e 43 53
e 43 60
e 43 66
e 43 75
e 43 95
e 43 104
e 43 108
e 43 110
e 43 115
e 43 124
e 43 128
e 43 161
e 43 164
e 43 168
e 43 174
e 43 184
e 44 46
e 44 51
e 44 52
e 44 58
e 44 59
e 44 61
e 44 72
e 44 76
e 44 111
e 44 121
e 44 122
e 44 133
e 44 136
e 44 155
e 44 167
e 44 180
e 45 48
e 45 51
e 45 52
e 45 55
e 45 56
e 45 57
e 45 58
e 45 61
e 45 63
e 45 73
e 45 79
e 45 81
e 45 89
e 45 94
e 45 95
e 45 101
e 45 106
e 45 107
e 45 115
e 45 116
e 45 118
e 45 119
e 45 122
e 45 127
e 45 128
e 45 135
e 45 141
e 45 142
e 45 145
e 45 146
e 45 166
e 45 176
e 45 185
e 45 186
e 45 198
e 45 199
e 46 50
e 46 51
e 46 52
e 46 60
e 46 61
e 46 68
e 46 74
e 46 76
e 46 82
e 46 83
e 46 89
e 46 99
e 46 103
e 46 108
e 46 119
e 46 133
e 46 162
e 46 164
e 46 168
e 46 169
e 46 173
e 46 177
e 46 181
e 46 184
e 46 194
e 47 49
e 47 52
e 47 55
e 47 57
e 47 65
e 47 67
e 47 74
e 47 81
e 47 85
e 47 88
e 47 89
e 47 91
e 47 92
e 47 98
e 47 111
e 47 113
e 47 117
e 47 120
e 47 124
e 47 137
e 47 139
e 47 150
e 47 152
e 47 153
e 47 156
e 47 159
e 47 179
e 47 183
e 47 188
e 47 192
e 47 194
e 47 196
e 48 49
e 48 53
e 48 54
e 48 55
e 48 61
e 48 68
e 48 69
e 48 70
e 48 73
e 48 83
e 48 85
e 48 99
e 48 122
e 48 124
e 48 136
e 48 149
e 48 157
e 48 158
e 48 170
e 48 175
e 48 176
e 48 191
e 49 56
e 49 58
e 49 62
e 49 71
e 49 73
e 49 75
e 49 77
e 49 81
e 49 83
e 49 84
e 49 92
e 49 93
e 49 97
e 49 113
e 49 115
e 49 122
e 49 131
e 49 135
e 49 136
e 49 142
e 49 144
e 49 146
e 49 160
e 49 175
e 49 179
e 50 55
e 50 56
e 50 61
e 50 64
e 50 77
e 50 94
e 50 103
e 50 123
e 50 127
e 50 131
e 50 138
e 50 152
e 50 157
e 50 158
e 50 162
e 50 165
e 50 199
e 51 52
e 51 57
e 51 59
e 51 64
e 51 67
e 51 68
e 51 69
e 51 71
e 51 74
e 51 96
e 51 106
e 51 108
e 51 109
e 51 111
e 51 119
e 51 121
e 51 125
e 51 129
e 51 147
e 51 183
e 51 194
e 52 53
e 52 55
e 52 60
e 52 61
e 52 64
e 52 72
e 52 73
e 52 78
e 52 80
e 52 82
e 52 86
e 52 91
e 52 92
e 52 104
e 52 105
e 52 106
e 52 112
e 52 123
e 52 129
e 52 132
e 52 134
e 52 137
e 52 138
e 52 139
e 52 142
e 52 144
e 52 151
e 52 157
e 52 160
e 52 165
e 52 166
e 52 167
e 52 171
e 52 177
e 52 191
e 52 193
e 52 194
e 53 57
e 53 61
e 53 65
e 53 69
e 53 81
e 53 83
e 53 86
e 53 95
e 53 98
e 53 100
e 53 119
e 53 122
e 53 124
e 53 141
e 53 150
e 53 170
e 53 171
e 53 185
e 53 198
e 54 57
e 54 58
e 54 60
e 54 62
e 54 67
e 54 86
e 54 90
e 54 91
e 54 98
e 54 101
e 54 102
e 54 103
e 54 110
e 54 123
e 54 130
e 54 134
e 54 137
e 54 156
e 54 167
e 54 170
e 54 176
e 54 187
e 54 194
e 55 67
e 55 71
e 55 72
e 55 75
e 55 82
e 55 89
e 55 93
e 55 97
e 55 110
e 55 111
e 55 114
e 55 126
e 55 139
e 55 155
e 55 158
e 55 165
e 55 172
e 55 185
e 55 192
e 56 59
e 56 63
e 56 65
e 56 73
e 56 75
e 56 76
e 56 79
e 56 82
e 56 91
e 56 98
e 56 100
e 56 114
e 56 115
e 56 117
e 56 126
e 56 127
e 56 132
e 56 157
e 56 160
e 56 164
e 56 184
e 56 185
e 56 190
e 56 194
e 57 62
e 57 63
e 57 75
e 57 77
e 57 98
e 57 102
e 57 117
e 57 119
e 57 120
e 57 124
e 57 127
e 57 135
e 57 137
e 57 150
e 57 156
e 57 157
e 57 158
e 57 166
e 57 171
e 57 174
e 57 175
e 57 178
e 57 182
e 57 186
e 57 192
e 58 59
e 58 60
e 58 61
e 58 63
e 58 65
e 58 69
e 58 73
e 58 75
e 58 79
e 58 91
e 58 92
e 58 95
e 58 96
e 58 134
e 58 144
e 58 154
e 58 182
e 58 196
e 59 60
e 59 62
e 59 65
e 59 68
e 59 85
e 59 87
e 59 90
e 59 94
e 59 96
e 59 98
e 59 99
e 59 101
e 59 102
e 59 108
e 59 113
e 59 114
e 59 118
e 59 124
e 59 126
e 59 127
e 59 141
e 59 143
e 59 146
e 59 162
e 59 165
e 59 171
e 59 186
e 59 192
e 59 197
e 59 198
e 60 64
e 60 70
e 60 79
e 60 82
e 60 83
e 60 88
e 60 105
e 60 132
e 60 141
e 60 183
e 60 186
e 60 187
e 61 79
e 61 82
e 61 86
e 61 97
e 61 98
e 61 109
e 61 118
e 61 123
e 61 145
e 61 168
e 61 172
e 61 180
e 62 63
e 62 64
e 62 71
e 62 74
e 62 76
e 62 79
e 62 82
e 62 85
e 62 88
e 62 90
e 62 91
e 62 92
e 62 93
e 62 96
e 62 97
e 62 102
e 62 110
e 62 111
e 62 113
e 62 116
e 62 123
e 62 126
e 62 127
e 62 129
e 62 131
e 62 134
e 62 140
e 62 141
e 62 147
e 62 148
e 62 150
e 62 155
e 62 164
e 62 169
e 62 172
e 62 174
e 62 181
e 62 190
e 62 196
e 62 199
e 63 74
e 63 81
e 63 84
e 63 92
e 63 107
e 63 115
e 63 120
e 63 126
e 63 137
e 63 147
e 63 148
e 63 151
e 63 158
e 63 165
e 63 172
e 63 177
e 63 178
e 63 187
e 63 195
e 64 67
e 64 70
e 64 74
e 64 77
e 64 78
e 64 88
e 64 103
e 64 117
e 64 118
e 64 140
e 64 170
e 64 177
e 64 186
e 65 66
e 65 70
e 65 76
e 65 80
e 65 83
e 65 88
e 65 106
e 65 112
e 65 114
e 65 121
e 65 125
e 65 159
e 65 169
e 65 178
e 65 184
e 65 190
e 65 193
e 66 69
e 66 73
e 66 74
e 66 80
e 66 85
e 66 96
e 66 109
e 66 112
e 66 118
e 66 125
e 66 130
e 66 134
e 66 139
e 66 142
e 66 145
e 66 151
e 66 153
e 66 159
e 66 186
e 66 195
e 67 69
e 67 72
e 67 76
e 67 78
e 67 83
e 67 85
e 67 93
e 67 101
e 67 105
e 67 106
e 67 118
e 67 124
e 67 151
e 67 162
e 67 170
e 67 178
e 67 182
e 67 187
e 67 192
e 67 196
e 68 74
e 68 79
e 68 84
e 68 90
e 68 98
e 68 109
e 68 152
e 68 155
e 68 179
e 68 181
e 68 183
e 69 71
e 69 76
e 69 89
e 69 103
e 69 106
e 69 110
e 69 122
e 69 126
e 69 137
e 69 138
e 69 148
e 69 152
e 69 153
e 69 159
e 69 163
e 69 190
e 70 72
e 70 77
e 70 87
e 70 103
e 70 104
e 70 109
e 70 114
e 70 121
e 70 145
e 70 160
e 70 161
e 70 181
e 70 183
e 70 194
e 71 75
e 71 76
e 71 94
e 71 99
e 71 100
e 71 103
e 71 107
e 71 108
e 71 127
e 71 130
e 71 140
e 71 147
e 71 156
e 71 186
e 71 189
e 72 80
e 72 83
e 72 130
e 72 137
e 72 145
e 72 159
e 72 172
e 73 78
e 73 85
e 73 99
e 73 100
e 73 105
e 73 119
e 73 146
e 73 147
e 73 149
e 73 152
e 73 154
e 73 164
e 73 168
e 73 169
e 73 171
e 73 172
e 73 173
e 73 182
e 73 187
e 74 87
e 74 94
e 74 118
e 74 131
e 74 151
e 74 156
e 74 168
e 74 178
e 74 179
e 74 180
e 74 181
e 74 183
e 74 187
e 75 77
e 75 88
e 75 97
e 75 101
e 75 125
e 75 152
e 75 191
e 76 82
e 76 94
e 76 98
e 76 116
e 76 125
e 76 133
e 76 138
e 76 153
e 76 171
e 76 173
e 76 188
e 76 197
e 76 198
e 77 83
e 77 100
e 77 103
e 77 106
e 77 113
e 77 128
e 77 130
e 77 131
e 77 136
e 77 144
e 77 150
e 77 153
e 77 161
e 77 171
e 77 174
e 77 193
e 78 81
e 78 84
e 78 90
e 78 92
e 78 98
e 78 101
e 78 107
e 78 116
e 78 117
e 78 119
e 78 154
e 78 172
e 78 174
e 78 179
e 78 182
e 78 186
e 78 188
e 78 193
e 78 199
e 79 86
e 79 93
e 79 97
e 79 121
e 79 138
e 79 156
e 79 158
e 79 181
e 79 185
e 79 191
e 80 90
e 80 91
e 80 100
e 80 105
e 80 110
e 80 114
e 80 188
e 80 190
e 80 192
e 81 83
e 81 84
e 81 93
e 81 94
e 81 114
e 81 121
e 81 135
e 81 137
e 81 142
e 81 161
e 81 165
e 81 166
e 81 175
e 81 178
e 81 198
e 82 87
e 82 94
e 82 101
e 82 130
e 82 132
e 82 133
e 82 151
e 82 158
e 82 161
e 82 166
e 82 196
e 83 90
e 83 93
e 83 95
e 83 96
e 83 108
e 83 113
e 83 131
e 83 162
e 83 164
e 83 168
e 83 180
e 83 195
e 84 108
e 84 119
e 84 130
e 84 148
e 84 149
e 84 167
e 84 192
e 85 86
e 85 103
e 85 104
e 85 108
e 85 109
e 85 113
e 85 120
e 85 124
e 85 135
e 85 149
e 85 156
e 85 162
e 86 91
e 86 95
e 86 99
e 86 102
e 86 120
e 86 123
e 86 135
e 86 140
e 86 146
e 86 147
e 86 165
e 87 103
e 87 104
e 87 108
e 87 127
e 87 129
e 87 131
e 87 149
e 87 154
e 87 168
e 87 179
e 87 185
e 87 195
e 87 197
e 88 97
e 88 104
e 88 107
e 88 111
e 88 113
e 88 114
e 88 123
e 88 125
e 88 131
e 88 137
e 88 151
e 88 163
e 88 179
e 88 185
e 88 197
e 89 93
e 89 94
e 89 105
e 89 119
e 89 124
e 89 125
e 89 128
e 89 154
e 89 160
e 89 173
e 89 179
e 89 185
e 90 92
e 90 100
e 90 120
e 90 136
e 90 142
e 90 193
e 90 197
e 91 92
e 91 105
e 91 121
e 91 135
e 91 162
e 91 166
e 92 95
e 92 106
e 92 119
e 92 126
e 92 142
e 92 166
e 92 174
e 93 96
e 93 98
e 93 104
e 93 107
e 93 130
e 93 161
e 93 171
e 93 174
e 93 179
e 93 186
e 93 189
e 93 197
e 94 101
e 94 124
e 94 137
e 95 101
e 95 122
e 95 150
e 95 165
e 95 182
e 95 187
e 95 195
e 95 198
e 96 160
e 96 161
e 96 172
e 96 192
e 97 101
e 97 108
e 97 112
e 97 131
e 97 141
e 97 143
e 97 155
e 97 161
e 97 162
e 97 165
e 97 179
e 97 185
e 97 193
e 98 107
e 98 112
e 98 126
e 98 145
e 98 160
e 98 164
e 98 176
e 99 104
e 99 112
e 99 136
e 99 140
e 99 159
e 99 169
e 100 114
e 100 138
e 100 164
e 100 194
e 101 110
e 101 130
e 101 154
e 101 166
e 101 175
e 101 177
e 101 185
e 101 193
e 101 195
e 101 197
e 102 109
e 102 143
e 102 150
e 102 161
e 102 187
e 102 195
e 103 112
e 103 115
e 103 127
e 103 132
e 103 148
e 103 160
e 103 165
e 103 175
e 103 178
e 103 186
e 104 114
e 104 120
e 104 144
e 104 149
e 104 154
e 104 189
e 104 190
e 105 110
e 105 129
e 105 130
e 105 140
e 105 141
e 105 142
e 105 143
e 105 148
e 105 151
e 105 180
e 105 193
e 106 132
e 106 165
e 107 108
e 107 113
e 107 125
e 107 133
e 107 140
e 107 154
e 107 155
e 107 177
e 107 183
e 107 189
e 108 110
e 108 133
e 108 138
e 108 142
e 108 164
e 108 171
e 108 184
e 109 110
e 109 116
e 109 140
e 109 161
e 109 170
e 109 181
e 110 120
e 110 132
e 110 145
e 110 156
e 110 196
e 111 141
e 111 164
e 111 169
e 111 176
e 111 191
e 112 128
e 112 130
e 112 159
e 112 193
e 113 131
e 113 145
e 113 152
e 113 175
e 114 125
e 114 130
e 114 150
e 114 181
e 114 185
e 115 119
e 115 123
e 115 135
e 115 139
e 115 152
e 115 153
e 115 192
e 115 199
e 116 120
e 116 139
e 116 141
e 117 123
e 117 136
e 117 144
e 117 150
e 117 152
e 117 164
e 117 169
e 117 171
e 117 178
e 117 182
e 117 195
e 118 128
e 118 138
e 118 148
e 118 162
e 118 169
e 118 190
e 119 156
e 119 196
e 120 132
e 120 189
e 121 122
e 121 161
e 122 126
e 122 129
e 122 157
e 122 159
e 122 163
e 122 164
e 122 166
e 122 173
e 122 192
e 123 125
e 123 153
e 123 154
e 123 174
e 123 189
e 124 128
e 124 133
e 124 135
e 124 138
e 124 181
e 125 146
e 125 168
e 125 169
e 125 170
e 125 177
e 125 184
e 125 189
e 126 143
e 126 152
e 126 169
e 126 175
e 126 176
e 126 182
e 126 186
e 128 129
e 128 138
e 128 139
e 128 146
e 128 149
e 128 159
e 128 160
e 128 165
e 128 168
e 129 137
e 129 158
e 129 163
e 130 139
e 130 170
e 130 180
e 130 183
e 130 186
e 130 188
e 132 139
e 132 141
e 132 160
e 132 167
e 132 184
e 133 137
e 133 140
e 133 150
e 133 174
e 133 175
e 134 147
e 134 159
e 134 197
e 135 142
e 135 149
e 135 165
e 135 175
e 136 165
e 136 182
e 136 192
e 138 149
e 138 171
e 138 192
e 139 145
e 140 150
e 140 157
e 140 171
e 140 173
e 140 177
e 140 182
e 141 157
e 141 161
e 142 160
e 142 169
e 142 184
e 142 185
e 143 149
e 143 168
e 143 184
e 144 155
e 144 162
e 144 165
e 144 167
e 144 170
e 144 191
e 145 146
e 145 163
e 145 179
e 146 149
e 146 173
e 146 191
e 147 153
e 147 156
e 147 189
e 148 174
e 149 164
e 149 167
e 149 173
e 149 194
e 150 179
e 150 180
e 151 191
e 151 195
e 152 164
e 152 196
e 153 170
e 154 172
e 154 186
e 156 159
e 156 166
e 156 167
e 156 173
e 156 190
e 157 176
e 158 184
e 158 191
e 158 194
e 158 197
e 159 163
e 159 172
e 159 184
e 159 199
e 160 177
e 160 182
e 160 192
e 160 195
e 162 174
e 162 181
e 164 185
e 164 189
e 165 177
e 166 185
e 166 196
e 167 189
e 168 170
e 168 180
e 170 171
e 170 195
e 171 190
e 172 180
e 173 178
e 173 188
e 174 180
e 174 182
e 174 193
e 176 181
e 176 189
e 177 178
e 177 191
e 177 195
e 178 189
e 178 191
e 178 196
e 181 194
e 181 199
e 183 185
e 184 198
e 187 188
e 187 195
e 190 196
e 195 199
